projected/problems_b25_r0_d7_m100_s666/_DIMACS/b25_d7_r0_s666_096.cnf
p cnf 196 300 25
c p show 1 2 3 4 5 6 7 8 9 10 11 12 13 14 15 16 17 18 19 20 21 22 23 24 25
-77 22 -16 0
-78 12 -17 0
-79 78 0
-79 77 0
-80 22 0
-80 -10 0
-81 -14 -6 0
-82 81 0
-82 80 0
-83 82 79 0
-84 -22 0
-84 -7 0
-85 9 -8 0
-86 85 84 0
-87 23 0
-87 9 0
-88 17 0
-88 16 0
-89 88 0
-89 87 0
-90 89 86 0
-91 90 83 0
-92 22 7 0
-93 -9 0
-93 8 0
-94 93 0
-94 92 0
-95 -23 -9 0
-96 -17 -16 0
-97 96 95 0
-98 97 0
-98 94 0
-99 -22 0
-99 16 0
-100 -12 0
-100 17 0
-101 100 99 0
-102 -22 10 0
-103 14 0
-103 6 0
-104 103 102 0
-105 104 0
-105 101 0
-106 105 98 0
-107 106 0
-107 91 0
-108 -24 12 0
-109 -12 24 0
-110 109 0
-110 108 0
-111 -16 0
-111 -20 0
-112 111 110 0
-113 -6 -24 0
-114 1 0
-114 -4 0
-115 114 0
-115 113 0
-116 115 0
-116 112 0
-117 -16 17 0
-118 -17 16 0
-119 118 0
-119 117 0
-120 -19 0
-120 8 0
-121 120 119 0
-122 21 0
-122 17 0
-123 -12 0
-123 9 0
-124 123 0
-124 122 0
-125 124 121 0
-126 125 116 0
-127 126 107 0
-128 7 13 0
-129 -13 -7 0
-130 129 0
-130 128 0
-131 -5 0
-131 -24 0
-132 131 0
-132 130 0
-133 -10 -4 0
-134 4 10 0
-135 134 0
-135 133 0
-136 -13 0
-136 3 0
-137 136 0
-137 135 0
-138 137 132 0
-139 6 12 0
-140 -25 0
-141 140 0
-141 139 0
-142 6 0
-142 -5 0
-143 -20 -12 0
-144 143 0
-144 142 0
-145 144 0
-145 141 0
-146 145 138 0
-147 8 0
-147 4 0
-148 7 0
-148 -2 0
-149 148 0
-149 147 0
-150 -25 -21 0
-151 4 0
-151 5 0
-152 151 150 0
-153 152 0
-153 149 0
-154 19 0
-154 -2 0
-155 14 20 0
-156 155 154 0
-157 5 9 0
-159 23 0
-159 -18 0
-160 159 157 0
-161 160 0
-161 156 0
-162 161 153 0
-163 162 0
-163 146 0
-165 163 127 0
-166 5 17 0
-167 -17 -5 0
-168 167 0
-168 166 0
-169 25 0
-169 -11 0
-171 169 168 0
-172 -13 -8 0
-173 1 0
-173 -15 0
-174 173 0
-174 172 0
-175 174 171 0
-177 13 0
-177 8 0
-178 -1 15 0
-179 178 177 0
-180 -5 0
-180 -17 0
-181 17 0
-181 5 0
-183 181 180 0
-184 -25 11 0
-185 184 0
-185 183 0
-186 185 179 0
-187 186 0
-187 175 0
-189 -3 14 0
-190 -19 0
-190 5 0
-191 190 0
-191 189 0
-192 7 0
-192 -8 0
-193 192 84 0
-195 193 0
-195 191 0
-196 195 0
-196 187 0
-26 18 0
-26 -13 0
-158 -14 11 0
-164 158 0
-164 26 0
-170 -10 24 0
-176 -9 0
-176 -6 0
-182 176 0
-182 170 0
-188 182 0
-188 164 0
-194 7 0
-194 22 0
-76 -2 8 0
-27 -8 2 0
-28 27 0
-28 76 0
-29 28 0
-29 194 0
-30 -22 0
-30 1 0
-31 -11 13 0
-32 31 30 0
-33 32 29 0
-34 33 0
-34 188 0
-35 34 196 0
-36 23 -21 0
-37 11 -7 0
-38 37 0
-38 36 0
-39 -10 0
-39 -14 0
-40 14 0
-40 -14 0
-41 40 39 0
-42 41 0
-42 38 0
-43 10 14 0
-44 -14 14 0
-45 44 0
-45 43 0
-46 -23 0
-46 21 0
-47 -11 0
-47 7 0
-48 47 46 0
-49 48 0
-49 45 0
-50 49 42 0
-51 -25 -11 0
-52 -12 -17 0
-53 52 0
-53 51 0
-54 4 -14 0
-55 21 0
-55 -20 0
-56 55 54 0
-57 56 53 0
-58 57 50 0
-59 -9 0
-59 7 0
-60 17 1 0
-61 60 59 0
-62 17 18 0
-63 5 0
-63 8 0
-64 63 0
-64 62 0
-65 64 0
-65 61 0
-66 22 19 0
-67 -1 0
-67 -22 0
-68 67 0
-68 66 0
-69 8 12 0
-70 -4 20 0
-71 70 69 0
-72 71 68 0
-73 72 0
-73 65 0
-74 73 0
-74 58 0
-75 74 35 0
75 0
165 0
-84 -92 0
-85 -93 0
-86 -94 0
-94 -86 0
-87 -95 0
-88 -96 0
-89 -97 0
-97 -89 0
-98 -90 0
-99 -77 0
-77 -99 0
-100 -78 0
-78 -100 0
-79 -101 0
-101 -79 0
-102 -80 0
-103 -81 0
-104 -82 0
-105 -83 0
-83 -105 0
-172 -177 0
-177 -172 0
-173 -178 0
-178 -173 0
-179 -174 0
-168 -183 0
-183 -168 0
-169 -184 0
-184 -169 0
-185 -171 0
-171 -185 0
-39 -43 0
-43 -39 0
-44 -40 0
-45 -41 0
-41 -45 0
-46 -36 0
-36 -46 0
-37 -47 0
-38 -48 0
-48 -38 0
