projected/problems_b25_r0_d7_m100_s666/b25_d7_r0_s666_096.smt2
(set-logic QF_UF)
(declare-fun A0 () Bool)
(declare-fun A1 () Bool)
(declare-fun A2 () Bool)
(declare-fun A3 () Bool)
(declare-fun A4 () Bool)
(declare-fun A5 () Bool)
(declare-fun A6 () Bool)
(declare-fun A7 () Bool)
(declare-fun A8 () Bool)
(declare-fun A9 () Bool)
(declare-fun A10 () Bool)
(declare-fun A11 () Bool)
(declare-fun A12 () Bool)
(declare-fun A13 () Bool)
(declare-fun A14 () Bool)
(declare-fun A15 () Bool)
(declare-fun A16 () Bool)
(declare-fun A17 () Bool)
(declare-fun A18 () Bool)
(declare-fun A19 () Bool)
(declare-fun A20 () Bool)
(declare-fun A21 () Bool)
(declare-fun A22 () Bool)
(declare-fun A23 () Bool)
(declare-fun A24 () Bool)
(assert (let ((.def_0 (not A6))) (let ((.def_1 (not A21))) (let ((.def_2 (and .def_1 .def_0))) (let ((.def_3 (not A7))) (let ((.def_4 (or A8 .def_3))) (let ((.def_5 (or .def_4 .def_2))) (let ((.def_6 (not .def_5))) (let ((.def_7 (and A22 A8))) (let ((.def_8 (and A16 A15))) (let ((.def_9 (and .def_8 .def_7))) (let ((.def_10 (not .def_9))) (let ((.def_11 (and .def_10 .def_6))) (let ((.def_12 (and .def_1 A15))) (let ((.def_13 (not .def_12))) (let ((.def_14 (not A11))) (let ((.def_15 (and .def_14 A16))) (let ((.def_16 (not .def_15))) (let ((.def_17 (and .def_16 .def_13))) (let ((.def_18 (not .def_17))) (let ((.def_19 (or .def_1 A9))) (let ((.def_20 (and A13 A5))) (let ((.def_21 (or .def_20 .def_19))) (let ((.def_22 (and .def_21 .def_18))) (let ((.def_23 (not .def_22))) (let ((.def_24 (= .def_23 .def_11))) (let ((.def_25 (not .def_24))) (let ((.def_26 (= A11 A23))) (let ((.def_27 (not .def_26))) (let ((.def_28 (not A19))) (let ((.def_29 (not A15))) (let ((.def_30 (and .def_29 .def_28))) (let ((.def_31 (not .def_30))) (let ((.def_32 (and .def_31 .def_27))) (let ((.def_33 (not .def_32))) (let ((.def_34 (and A5 A23))) (let ((.def_35 (not A0))) (let ((.def_36 (or .def_35 A3))) (let ((.def_37 (or .def_36 .def_34))) (let ((.def_38 (not .def_37))) (let ((.def_39 (and .def_38 .def_33))) (let ((.def_40 (= A16 A15))) (let ((.def_41 (or A18 .def_3))) (let ((.def_42 (not .def_41))) (let ((.def_43 (or .def_42 .def_40))) (let ((.def_44 (not .def_43))) (let ((.def_45 (not A16))) (let ((.def_46 (not A20))) (let ((.def_47 (or .def_46 .def_45))) (let ((.def_48 (and .def_14 A8))) (let ((.def_49 (not .def_48))) (let ((.def_50 (or .def_49 .def_47))) (let ((.def_51 (and .def_50 .def_44))) (let ((.def_52 (not .def_51))) (let ((.def_53 (or .def_52 .def_39))) (let ((.def_54 (not .def_53))) (let ((.def_55 (and .def_54 .def_25))) (let ((.def_56 (not .def_55))) (let ((.def_57 (= A12 .def_0))) (let ((.def_58 (or A4 A23))) (let ((.def_59 (not .def_58))) (let ((.def_60 (and .def_59 .def_57))) (let ((.def_61 (not A3))) (let ((.def_62 (= .def_61 A9))) (let ((.def_63 (not A2))) (let ((.def_64 (or A12 .def_63))) (let ((.def_65 (not .def_64))) (let ((.def_66 (and .def_65 .def_62))) (let ((.def_67 (or .def_66 .def_60))) (let ((.def_68 (not .def_67))) (let ((.def_69 (not A5))) (let ((.def_70 (and .def_69 .def_14))) (let ((.def_71 (not .def_70))) (let ((.def_72 (not A24))) (let ((.def_73 (and .def_72 .def_72))) (let ((.def_74 (and .def_73 .def_71))) (let ((.def_75 (or .def_69 A4))) (let ((.def_76 (or .def_28 .def_14))) (let ((.def_77 (not .def_76))) (let ((.def_78 (or .def_77 .def_75))) (let ((.def_79 (not .def_78))) (let ((.def_80 (and .def_79 .def_74))) (let ((.def_81 (not .def_80))) (let ((.def_82 (and .def_81 .def_68))) (let ((.def_83 (and A7 A3))) (let ((.def_84 (not .def_83))) (let ((.def_85 (or .def_0 A1))) (let ((.def_86 (or .def_85 .def_84))) (let ((.def_87 (or .def_72 .def_46))) (let ((.def_88 (not A4))) (let ((.def_89 (or .def_61 .def_88))) (let ((.def_90 (not .def_89))) (let ((.def_91 (or .def_90 .def_87))) (let ((.def_92 (not .def_91))) (let ((.def_93 (or .def_92 .def_86))) (let ((.def_94 (not A1))) (let ((.def_95 (and A18 .def_94))) (let ((.def_96 (not .def_95))) (let ((.def_97 (or A13 A19))) (let ((.def_98 (not .def_97))) (let ((.def_99 (and .def_98 .def_96))) (let ((.def_100 (not .def_99))) (let ((.def_101 (not A8))) (let ((.def_102 (and .def_88 .def_101))) (let ((.def_103 (not .def_102))) (let ((.def_104 (not A22))) (let ((.def_105 (or .def_104 A17))) (let ((.def_106 (not .def_105))) (let ((.def_107 (or .def_106 .def_103))) (let ((.def_108 (and .def_107 .def_100))) (let ((.def_109 (not .def_108))) (let ((.def_110 (and .def_109 .def_93))) (let ((.def_111 (or .def_110 .def_82))) (let ((.def_112 (not .def_111))) (let ((.def_113 (or .def_112 .def_56))) (let ((.def_114 (not .def_113))) (let ((.def_115 (not A12))) (let ((.def_116 (or .def_115 .def_3))) (let ((.def_117 (not .def_116))) (let ((.def_118 (not A14))) (let ((.def_119 (and A0 .def_118))) (let ((.def_120 (not .def_119))) (let ((.def_121 (or .def_120 .def_117))) (let ((.def_122 (= A16 .def_88))) (let ((.def_123 (not .def_122))) (let ((.def_124 (not A10))) (let ((.def_125 (and A24 .def_124))) (let ((.def_126 (not .def_125))) (let ((.def_127 (and .def_126 .def_123))) (let ((.def_128 (not .def_127))) (let ((.def_129 (= .def_128 .def_121))) (let ((.def_130 (not .def_129))) (let ((.def_131 (or .def_63 A13))) (let ((.def_132 (not .def_131))) (let ((.def_133 (or A18 .def_88))) (let ((.def_134 (or .def_133 .def_132))) (let ((.def_135 (not .def_2))) (let ((.def_136 (and A6 .def_3))) (let ((.def_137 (not .def_136))) (let ((.def_138 (and .def_137 .def_135))) (let ((.def_139 (or .def_138 .def_134))) (let ((.def_140 (or .def_139 .def_130))) (let ((.def_141 (not A17))) (let ((.def_142 (or .def_141 A12))) (let ((.def_143 (not .def_142))) (let ((.def_144 (and A13 .def_124))) (let ((.def_145 (not .def_144))) (let ((.def_146 (and .def_145 .def_143))) (let ((.def_147 (not .def_146))) (let ((.def_148 (not A9))) (let ((.def_149 (or .def_148 A23))) (let ((.def_150 (and .def_101 .def_69))) (let ((.def_151 (and .def_150 .def_149))) (let ((.def_152 (not .def_151))) (let ((.def_153 (or .def_152 .def_147))) (let ((.def_154 (not .def_153))) (let ((.def_155 (or .def_0 .def_1))) (let ((.def_156 (= A7 A1))) (let ((.def_157 (not .def_156))) (let ((.def_158 (or .def_157 .def_155))) (let ((.def_159 (or A21 .def_35))) (let ((.def_160 (not .def_159))) (let ((.def_161 (or .def_124 A12))) (let ((.def_162 (or .def_161 .def_160))) (let ((.def_163 (not .def_162))) (let ((.def_164 (and .def_163 .def_158))) (let ((.def_165 (not .def_164))) (let ((.def_166 (and .def_165 .def_154))) (let ((.def_167 (not .def_166))) (let ((.def_168 (and .def_167 .def_140))) (let ((.def_169 (not .def_168))) (let ((.def_170 (not A13))) (let ((.def_171 (and .def_148 .def_170))) (let ((.def_172 (not .def_171))) (let ((.def_173 (or .def_170 A13))) (let ((.def_174 (and .def_173 .def_172))) (let ((.def_175 (not .def_174))) (let ((.def_176 (and .def_104 A20))) (let ((.def_177 (not .def_176))) (let ((.def_178 (or A10 .def_0))) (let ((.def_179 (and .def_178 .def_177))) (let ((.def_180 (not .def_179))) (let ((.def_181 (= .def_180 .def_175))) (let ((.def_182 (and A24 A10))) (let ((.def_183 (not .def_182))) (let ((.def_184 (and A11 A16))) (let ((.def_185 (not .def_184))) (let ((.def_186 (and .def_185 .def_183))) (let ((.def_187 (not .def_186))) (let ((.def_188 (or A3 .def_170))) (let ((.def_189 (and A20 .def_28))) (let ((.def_190 (or .def_189 .def_188))) (let ((.def_191 (not .def_190))) (let ((.def_192 (and .def_191 .def_187))) (let ((.def_193 (and .def_192 .def_181))) (let ((.def_194 (not .def_193))) (let ((.def_195 (or A8 .def_0))) (let ((.def_196 (and .def_45 .def_35))) (let ((.def_197 (and .def_196 .def_195))) (let ((.def_198 (or A16 A17))) (let ((.def_199 (not .def_198))) (let ((.def_200 (and A4 A7))) (let ((.def_201 (not .def_200))) (let ((.def_202 (or .def_201 .def_199))) (let ((.def_203 (or .def_202 .def_197))) (let ((.def_204 (not A18))) (let ((.def_205 (and .def_1 .def_204))) (let ((.def_206 (not .def_205))) (let ((.def_207 (or A0 A21))) (let ((.def_208 (not .def_207))) (let ((.def_209 (and .def_208 .def_206))) (let ((.def_210 (or A7 A11))) (let ((.def_211 (not .def_210))) (let ((.def_212 (and A3 .def_28))) (let ((.def_213 (and .def_212 .def_211))) (let ((.def_214 (not .def_213))) (let ((.def_215 (or .def_214 .def_209))) (let ((.def_216 (not .def_215))) (let ((.def_217 (or .def_216 .def_203))) (let ((.def_218 (not .def_217))) (let ((.def_219 (and .def_218 .def_194))) (let ((.def_220 (or .def_219 .def_169))) (let ((.def_221 (not .def_220))) (let ((.def_222 (or .def_221 .def_114))) (let ((.def_223 (not .def_222))) .def_223)))))))))))))))))))))))))))))))))))))))))))))))))))))))))))))))))))))))))))))))))))))))))))))))))))))))))))))))))))))))))))))))))))))))))))))))))))))))))))))))))))))))))))))))))))))))))))))))))))))))))))))))))))))))))))))))))
(check-sat)
